p cnf 12 34
8 -2 -12 0
-11 8 -1 0
-5 -8 -1 -5 0
-2 7 -6 8 0
-1 -3 -7 -4 0
-2 -9  -12 11 0
-6 9 5 -4 0
1 -12 11 0
-8 -10 3 0
-3 1 2 0
-7 -6 2 4 0
8 -4 -3 0
-8 -5 10 0
1 2 8 -9 0
-8 -4 7 0
8 -9 -4 0
-4 7 -5 0
2 -7 -4 0
-10 -1 8 0
2 -5 -1 0
9 6 -11 -2 0
1 2 -7 0
-12 -5 3 0
-2 -9 -7 0
-8 -3 2 0
-2 3 4 0
-10 4 11 0
6 -8 3 0
10 5 -12 0
2 4 -9 11 0
-1 7 -5 0
5 -1 7 0
11 -12 1 0
4 -12 1 0
